
Gurobi 7.5.2 (linux64) logging started Sat Jul  7 16:27:10 2018

Changed value of parameter LogFile to result/ilp/simNo_4-n_100-m_40-s_4-minVAF_0.05-cov_10000-k_1-fn_0.15-fp_0.0001-na_0.15.ILP.gurobiSolverLog
   Prev: gurobi.log  Default: 
Changed value of parameter TimeLimit to 86400.0
   Prev: 1e+100  Min: 0.0  Max: 1e+100  Default: 1e+100
Optimize a model with 639293 rows, 10765 columns and 1940420 nonzeros
Variable types: 0 continuous, 10765 integer (10765 binary)
Coefficient statistics:
  Matrix range     [4e-04, 4e+00]
  Objective range  [1e+00, 1e+01]
  Bounds range     [1e+00, 1e+00]
  RHS range        [3e-01, 2e+00]
Found heuristic solution: objective -18924.95887
Presolve removed 123080 rows and 943 columns (presolve time = 6s) ...
Presolve removed 125447 rows and 983 columns (presolve time = 10s) ...
Presolve removed 125447 rows and 983 columns (presolve time = 16s) ...
Presolve removed 125985 rows and 983 columns (presolve time = 24s) ...
Presolve removed 125985 rows and 983 columns (presolve time = 25s) ...
Presolve removed 179785 rows and 1521 columns (presolve time = 32s) ...
Presolve removed 179785 rows and 1521 columns
Presolve time: 33.69s
Presolved: 459508 rows, 9244 columns, 1384359 nonzeros
Variable types: 0 continuous, 9244 integer (9244 binary)
Presolved: 9244 rows, 468752 columns, 1393603 nonzeros

Presolve removed 9244 rows and 468752 columns

Root simplex log...

Iteration    Objective       Primal Inf.    Dual Inf.      Time
       0    1.2290254e+01   0.000000e+00   9.281600e+04     39s
    9362   -1.7850903e+02   0.000000e+00   2.484250e+05     40s
   24641   -3.1111654e+02   0.000000e+00   4.087391e+05     45s
   37385   -3.6477285e+02   0.000000e+00   3.455513e+05     50s
   49117   -3.9736216e+02   0.000000e+00   4.184127e+04     55s
   57901   -4.1706842e+02   0.000000e+00   2.960393e+05     60s
   60072   -4.1828357e+02   0.000000e+00   0.000000e+00     63s
   60072   -4.1828357e+02   0.000000e+00   0.000000e+00     64s

Root relaxation: objective -4.182836e+02, 60072 iterations, 28.05 seconds
Total elapsed time = 65.09s
Total elapsed time = 203.61s
Total elapsed time = 385.05s
Total elapsed time = 487.12s

    Nodes    |    Current Node    |     Objective Bounds      |     Work
 Expl Unexpl |  Obj  Depth IntInf | Incumbent    BestBd   Gap | It/Node Time

     0     0 -418.28357    0 1372 -18924.959 -418.28357  97.8%     -  528s
H    0     0                    -518.9827599 -418.28357  19.4%     -  530s
H    0     0                    -507.4271155 -418.28357  17.6%     -  533s
     0     0 -420.75978    0 1391 -507.42712 -420.75978  17.1%     -  783s
H    0     0                    -490.9190521 -420.75978  14.3%     -  802s
     0     0 -420.75978    0 1392 -490.91905 -420.75978  14.3%     -  806s
     0     0 -423.33032    0 1418 -490.91905 -423.33032  13.8%     - 10170s
H    0     0                    -487.6174394 -423.33032  13.2%     - 10175s
     0     0 -423.94436    0 1403 -487.61744 -423.94436  13.1%     - 11160s
     0     0 -424.15326    0 1407 -487.61744 -424.15326  13.0%     - 11455s
     0     0 -424.40908    0 1437 -487.61744 -424.40908  13.0%     - 12843s
     0     0 -424.60698    0 1430 -487.61744 -424.60698  12.9%     - 13039s
     0     0 -424.60698    0 1433 -487.61744 -424.60698  12.9%     - 13043s
     0     0 -426.43757    0 1430 -487.61744 -426.43757  12.5%     - 24679s
     0     0 -426.44039    0 1440 -487.61744 -426.44039  12.5%     - 24691s
     0     0 -426.44039    0 1417 -487.61744 -426.44039  12.5%     - 24694s
     0     0 -427.34772    0 1467 -487.61744 -427.34772  12.4%     - 35469s
     0     0 -427.34772    0 1463 -487.61744 -427.34772  12.4%     - 35478s
     0     0 -428.27427    0 1357 -487.61744 -428.27427  12.2%     - 35613s
     0     0 -428.28739    0 1344 -487.61744 -428.28739  12.2%     - 35632s
     0     0 -429.83845    0 1401 -487.61744 -429.83845  11.8%     - 52312s
H    0     0                    -479.3634077 -429.83845  10.3%     - 52326s
     0     0 -429.83845    0 1393 -479.36341 -429.83845  10.3%     - 52329s
     0     0 -431.26108    0 1333 -479.36341 -431.26108  10.0%     - 54795s
     0     0 -431.44313    0 1463 -479.36341 -431.44313  10.0%     - 55267s
     0     0 -431.44313    0 1472 -479.36341 -431.44313  10.0%     - 55272s
     0     0 -431.82939    0 1475 -479.36341 -431.82939  9.92%     - 55352s
H    0     0                    -476.0617950 -431.82939  9.29%     - 55373s
     0     0 -431.89805    0 1430 -476.06179 -431.89805  9.28%     - 55448s
     0     0 -432.03664    0 1466 -476.06179 -432.03664  9.25%     - 55518s
     0     0 -432.11105    0 1463 -476.06179 -432.11105  9.23%     - 55558s
     0     0 -432.13882    0 1469 -476.06179 -432.13882  9.23%     - 55787s
     0     0 -432.14496    0 1469 -476.06179 -432.14496  9.23%     - 55801s
     0     0 -432.14496    0 1470 -476.06179 -432.14496  9.23%     - 55804s
     0     0 -432.68688    0 1473 -476.06179 -432.68688  9.11%     - 55879s
H    0     0                    -472.7601823 -432.68688  8.48%     - 55911s
     0     0 -432.81732    0 1487 -472.76018 -432.81732  8.45%     - 55994s
     0     0 -432.84000    0 1484 -472.76018 -432.84000  8.44%     - 56006s
     0     0 -432.84632    0 1487 -472.76018 -432.84632  8.44%     - 56015s
     0     0 -432.84814    0 1487 -472.76018 -432.84814  8.44%     - 56044s
     0     0 -432.84814    0 1520 -472.76018 -432.84814  8.44%     - 56050s
     0     0 -434.21686    0 1334 -472.76018 -434.21686  8.15%     - 56369s
     0     0 -434.40930    0 1335 -472.76018 -434.40930  8.11%     - 56630s
     0     0 -434.43835    0 1332 -472.76018 -434.43835  8.11%     - 56819s
     0     0 -434.44349    0 1339 -472.76018 -434.44349  8.10%     - 56840s
     0     0 -434.44349    0 1335 -472.76018 -434.44349  8.10%     - 56844s
     0     0 -434.96476    0 1196 -472.76018 -434.96476  7.99%     - 63876s
     0     0 -434.96648    0 1174 -472.76018 -434.96648  7.99%     - 63910s
     0     0 -435.90145    0 1373 -472.76018 -435.90145  7.80%     - 64534s
H    0     0                    -469.4585696 -435.90145  7.15%     - 64554s
     0     0 -436.04398    0 1373 -469.45857 -436.04398  7.12%     - 64583s
     0     0 -436.06528    0 1372 -469.45857 -436.06528  7.11%     - 64590s
     0     0 -436.07511    0 1370 -469.45857 -436.07511  7.11%     - 64605s
     0     0 -436.07721    0 1370 -469.45857 -436.07721  7.11%     - 64618s
     0     0 -437.61690    0 1309 -469.45857 -437.61690  6.78%     - 65428s
     0     0 -437.78339    0 1330 -469.45857 -437.78339  6.75%     - 65591s
     0     0 -437.86235    0 1328 -469.45857 -437.86235  6.73%     - 65726s
     0     0 -437.87930    0 1331 -469.45857 -437.87930  6.73%     - 65767s
     0     0 -437.89944    0 1339 -469.45857 -437.89944  6.72%     - 65795s
     0     0 -437.90009    0 1323 -469.45857 -437.90009  6.72%     - 65801s
     0     0 -438.19442    0 1345 -469.45857 -438.19442  6.66%     - 66113s
     0     0 -438.31197    0 1345 -469.45857 -438.31197  6.63%     - 66556s
     0     0 -438.33324    0 1334 -469.45857 -438.33324  6.63%     - 66631s
     0     0 -438.33571    0 1348 -469.45857 -438.33571  6.63%     - 66674s
     0     0 -438.33627    0 1339 -469.45857 -438.33627  6.63%     - 66693s
     0     0 -438.91851    0 1300 -469.45857 -438.91851  6.51%     - 68868s
     0     0 -439.18374    0 1323 -469.45857 -439.18374  6.45%     - 68993s
     0     0 -439.25826    0 1343 -469.45857 -439.25826  6.43%     - 69044s
     0     0 -439.29596    0 1308 -469.45857 -439.29596  6.42%     - 69128s
     0     0 -439.29596    0 1345 -469.45857 -439.29596  6.42%     - 69135s
     0     0 -439.70259    0 1273 -469.45857 -439.70259  6.34%     - 69435s
     0     0 -440.13331    0 1361 -469.45857 -440.13331  6.25%     - 69882s
     0     0 -440.21524    0 1361 -469.45857 -440.21524  6.23%     - 70095s
     0     0 -440.28502    0 1357 -469.45857 -440.28502  6.21%     - 70150s
     0     0 -440.28502    0 1359 -469.45857 -440.28502  6.21%     - 70155s
     0     0 -441.29169    0 1272 -469.45857 -441.29169  6.00%     - 71214s
H    0     0                    -467.8077633 -441.29169  5.67%     - 71256s
     0     0 -441.66051    0 1275 -467.80776 -441.66051  5.59%     - 71686s
     0     0 -441.71554    0 1336 -467.80776 -441.71554  5.58%     - 71889s
     0     0 -441.79808    0 1280 -467.80776 -441.79808  5.56%     - 72007s
     0     0 -441.79808    0 1340 -467.80776 -441.79808  5.56%     - 72012s
     0     0 -442.66369    0 1358 -467.80776 -442.66369  5.37%     - 74004s
     0     0 -443.01713    0 1351 -467.80776 -443.01713  5.30%     - 74359s
     0     0 -443.03551    0 1370 -467.80776 -443.03551  5.30%     - 74433s
     0     0 -443.06869    0 1350 -467.80776 -443.06869  5.29%     - 74543s
     0     0 -443.08275    0 1363 -467.80776 -443.08275  5.29%     - 74582s
     0     0 -443.08275    0 1364 -467.80776 -443.08275  5.29%     - 74587s
     0     0 -444.27678    0 1385 -467.80776 -444.27678  5.03%     - 78151s
     0     0 -444.70537    0 1318 -467.80776 -444.70537  4.94%     - 78796s
     0     0 -444.79825    0 1322 -467.80776 -444.79825  4.92%     - 78893s
     0     0 -444.79825    0 1324 -467.80776 -444.79825  4.92%     - 78897s
     0     0 -446.07215    0 1045 -467.80776 -446.07215  4.65%     - 80389s
     0     0 -446.62242    0 1330 -467.80776 -446.62242  4.53%     - 81744s
     0     0 -446.62242    0 1327 -467.80776 -446.62242  4.53%     - 81752s
     0     0 -446.62242    0 1313 -467.80776 -446.62242  4.53%     - 81775s
     0     0 -446.62242    0 1335 -467.80776 -446.62242  4.53%     - 81819s
     0     0          -    0      -467.80776 -446.62242  4.53%     - 86400s

Cutting planes:
  MIR: 1
  Zero half: 370

Explored 1 nodes (2465368 simplex iterations) in 86400.27 seconds
Thread count was 1 (of 80 available processors)

Solution count 10: -467.808 -469.459 -472.76 ... -18925

Time limit reached
Best objective -4.678077632907e+02, best bound -4.466224152418e+02, gap 4.5286%
